************************************************************************
file with basedata            : n/a
initial value random generator: n/a
************************************************************************
projects                      :  1
jobs (incl. supersource/sink ):  122
horizon                       :  693
RESOURCES
  - renewable                 :  4   R
  - nonrenewable              :  0   N
  - doubly constrained        :  0   D
************************************************************************
PROJECT INFORMATION:
pronr.  #jobs rel.date duedate tardcost  MPM-Time
    1    120      0      111       97      111
************************************************************************
PRECEDENCE RELATIONS:
jobnr.    #modes  #successors   successors
   1        1          3           2   3   4
   2        1          3           6   8  19
   3        1          3           5  17  23
   4        1          3          11  42 107
   5        1          3           7  13  15
   6        1          1          69
   7        1          3          10  49  65
   8        1          1           9
   9        1          3          32  36  57
  10        1          3          12  14  29
  11        1          2          67  72
  12        1          3          24  35  50
  13        1          1          71
  14        1          3          16  22  25
  15        1          3          30  34 110
  16        1          3          21  35  90
  17        1          3          18  20  27
  18        1          1          60
  19        1          3          31  36  39
  20        1          1          61
  21        1          3          26  73  85
  22        1          2          47  74
  23        1          3          28  33 102
  24        1          1          46
  25        1          2          80 104
  26        1          1         114
  27        1          2          40  46
  28        1          2          82  84
  29        1          3          45  68  87
  30        1          3          55  82  98
  31        1          1         106
  32        1          2          33  62
  33        1          1          34
  34        1          3          52  56  84
  35        1          2          37 106
  36        1          3          51 109 121
  37        1          3          38  48  59
  38        1          3          52  92 104
  39        1          2          43  56
  40        1          3          41  53  54
  41        1          3          44  47  80
  42        1          2          52  62
  43        1          1          46
  44        1          2          63  85
  45        1          1          77
  46        1          1          69
  47        1          1          76
  48        1          1          74
  49        1          1          82
  50        1          3          70  86  89
  51        1          1          94
  52        1          1          58
  53        1          2          78 105
  54        1          1         121
  55        1          1          63
  56        1          1          58
  57        1          2          71  85
  58        1          3          75  79  91
  59        1          2          78 113
  60        1          2          62  79
  61        1          2          64 113
  62        1          2          78  83
  63        1          3          69  92  93
  64        1          3          66  67  88
  65        1          2          75 100
  66        1          1          94
  67        1          1          71
  68        1          2          90 111
  69        1          2          86  99
  70        1          1          93
  71        1          3          76  81  91
  72        1          2          76  77
  73        1          2          81  83
  74        1          2          88  95
  75        1          1          88
  76        1          1          83
  77        1          1          97
  78        1          3          93  95  97
  79        1          2          87  98
  80        1          2          94 115
  81        1          1         103
  82        1          1         112
  83        1          1          97
  84        1          3          91 101 108
  85        1          1          96
  86        1          1         119
  87        1          1         109
  88        1          1         116
  89        1          2         101 107
  90        1          2          95 114
  91        1          1         117
  92        1          2         102 118
  93        1          1         112
  94        1          1         110
  95        1          3         102 108 109
  96        1          2         100 108
  97        1          3          98 103 114
  98        1          1         111
  99        1          2         101 104
 100        1          2         106 110
 101        1          2         103 105
 102        1          1         120
 103        1          1         115
 104        1          1         105
 105        1          1         112
 106        1          1         107
 107        1          2         111 113
 108        1          1         117
 109        1          1         118
 110        1          1         120
 111        1          2         116 119
 112        1          1         115
 113        1          1         119
 114        1          1         121
 115        1          1         116
 116        1          1         117
 117        1          1         118
 118        1          1         120
 119        1          1         122
 120        1          1         122
 121        1          1         122
 122        1          0        
************************************************************************
REQUESTS/DURATIONS:
jobnr. mode duration  R 1  R 2  R 3  R 4
------------------------------------------------------------------------
  1      1     0    
  2      1     8       4   4   4   4   4   4   2   4
                       0   0   0   0   0   0   0   0
                       0   0   0   0   0   0   0   0
                       2   2   2   2   2   2   1   2
  3      1     6       4   4   4   4   4   4
                       4   4   4   4   4   4
                       1   1   1   1   1   1
                       6   6   6   6   6   6
  4      1     7       2   1   2   2   2   2   2
                       0   0   0   0   0   0   0
                       9   5   9   9   9   9   9
                       8   4   8   8   8   8   8
  5      1    10       8   8   8   8   4   8   8   4   8   8
                       0   0   0   0   0   0   0   0   0   0
                       4   4   4   4   2   4   4   2   4   4
                       3   3   3   3   2   3   3   2   3   3
  6      1     3       9   9   9
                      10  10  10
                       7   7   7
                       3   3   3
  7      1    10       8   8   8   8   8   8   8   8   8   8
                       0   0   0   0   0   0   0   0   0   0
                       6   6   6   6   6   6   6   6   6   6
                       0   0   0   0   0   0   0   0   0   0
  8      1     8       5   5   5   5   5   5   5   5
                       8   8   8   8   8   8   8   8
                       6   6   6   6   6   6   6   6
                       7   7   7   7   7   7   7   7
  9      1     4       6   6   6   6
                       0   0   0   0
                       1   1   1   1
                       5   5   5   5
 10      1     4       2   3   3   3
                       3   5   5   5
                       0   0   0   0
                       0   0   0   0
 11      1     9       0   0   0   0   0   0   0   0   0
                       3   3   3   3   3   2   3   3   3
                       7   7   7   7   7   4   7   7   7
                       0   0   0   0   0   0   0   0   0
 12      1    10       6   6   6   6   3   6   6   6   6   6
                       2   2   2   2   1   2   2   2   2   2
                       0   0   0   0   0   0   0   0   0   0
                       2   2   2   2   1   2   2   2   2   2
 13      1     6       0   0   0   0   0   0
                      10  10  10  10  10  10
                       5   5   5   5   5   5
                      10  10  10  10  10  10
 14      1     6       6   6   6   6   6   3
                       0   0   0   0   0   0
                       0   0   0   0   0   0
                       0   0   0   0   0   0
 15      1     7       2   2   2   2   2   2   2
                       5   5   5   5   5   5   5
                       0   0   0   0   0   0   0
                      10  10  10  10  10  10  10
 16      1     3       0   0   0
                       5   5   5
                      10  10  10
                       9   9   9
 17      1     8      10  10  10  10  10   5   5   5
                       2   2   2   2   2   1   1   1
                      10  10  10  10  10   5   5   5
                       8   8   8   8   8   4   4   4
 18      1     4       8   8   8   8
                       9   9   9   9
                       7   7   7   7
                       7   7   7   7
 19      1     9       0   0   0   0   0   0   0   0   0
                       0   0   0   0   0   0   0   0   0
                       5   5   5   5   5   5   5   3   5
                       0   0   0   0   0   0   0   0   0
 20      1     3       8   8   8
                       0   0   0
                       5   5   5
                       3   3   3
 21      1     7       0   0   0   0   0   0   0
                       7   7   4   7   7   7   7
                       3   3   2   3   3   3   3
                       7   7   4   7   7   7   7
 22      1    10       9   9   9   9   9   9   9   9   9   9
                      10  10  10  10  10  10  10  10  10  10
                       0   0   0   0   0   0   0   0   0   0
                       0   0   0   0   0   0   0   0   0   0
 23      1     5       0   0   0   0   0
                       7   4   4   7   7
                       5   3   3   5   5
                       0   0   0   0   0
 24      1    10       2   2   2   2   2   2   2   2   2   1
                       8   8   8   8   8   8   8   8   8   4
                       3   3   3   3   3   3   3   3   3   2
                       1   1   1   1   1   1   1   1   1   1
 25      1     4       4   4   4   4
                       6   6   6   6
                       5   5   5   5
                       0   0   0   0
 26      1     8       3   3   6   6   6   6   6   6
                       4   4   8   8   8   8   8   8
                       4   4   7   7   7   7   7   7
                       5   5  10  10  10  10  10  10
 27      1     8       7   7   7   7   7   7   7   7
                       2   2   2   2   2   2   2   2
                       6   6   6   6   6   6   6   6
                       4   4   4   4   4   4   4   4
 28      1     8       2   1   2   2   2   2   2   2
                      10   5  10  10  10  10  10  10
                       0   0   0   0   0   0   0   0
                       0   0   0   0   0   0   0   0
 29      1     2       5   5
                       1   1
                       6   6
                       1   1
 30      1     8       0   0   0   0   0   0   0   0
                       0   0   0   0   0   0   0   0
                       0   0   0   0   0   0   0   0
                       5   5   3   5   5   5   5   5
 31      1     6       0   0   0   0   0   0
                       5   5   3   5   5   5
                       4   4   2   4   4   4
                      10  10   5  10  10  10
 32      1     6       4   4   2   4   4   4
                       6   6   3   6   6   6
                       0   0   0   0   0   0
                       0   0   0   0   0   0
 33      1     3       8   8   8
                       5   5   5
                       2   2   2
                       7   7   7
 34      1     4       0   0   0   0
                       8   8   8   8
                       6   6   6   6
                       0   0   0   0
 35      1     2       0   0
                       3   3
                       0   0
                       5   5
 36      1     3       4   4   4
                      10  10  10
                       6   6   6
                       7   7   7
 37      1     2       1   1
                      10  10
                       1   1
                       0   0
 38      1     3       0   0   0
                      10  10  10
                       9   9   9
                       3   3   3
 39      1     8       1   1   1   1   1   1   1   1
                       8   4   8   8   8   8   8   8
                       3   2   3   3   3   3   3   3
                       8   4   8   8   8   8   8   8
 40      1     5       1   1   1   1   1
                       7   7   7   7   4
                      10  10  10  10   5
                       1   1   1   1   1
 41      1     9       0   0   0   0   0   0   0   0   0
                       3   3   3   3   3   3   3   3   3
                       3   3   3   3   3   3   3   3   3
                       6   6   6   6   6   6   6   6   6
 42      1     5       4   7   7   4   7
                       3   6   6   3   6
                       5   9   9   5   9
                       1   2   2   1   2
 43      1    10       0   0   0   0   0   0   0   0   0   0
                       9   9   5   9   9   9   9   9   9   9
                       4   4   2   4   4   4   4   4   4   4
                       7   7   4   7   7   7   7   7   7   7
 44      1     3       4   4   4
                       2   2   2
                       7   7   7
                      10  10  10
 45      1    10      10  10  10  10  10  10   5   5  10  10
                       0   0   0   0   0   0   0   0   0   0
                       7   7   7   7   7   7   4   4   7   7
                       0   0   0   0   0   0   0   0   0   0
 46      1     1       7
                       7
                       9
                       1
 47      1     1       8
                       4
                       0
                       3
 48      1     4       4   7   4   7
                       3   5   3   5
                       5   9   5   9
                       0   0   0   0
 49      1     3       6   3   6
                       5   3   5
                       4   2   4
                       5   3   5
 50      1     1       0
                       2
                      10
                      10
 51      1     7       5   5   5   5   5   5   5
                      10  10  10  10  10  10  10
                       9   9   9   9   9   9   9
                       4   4   4   4   4   4   4
 52      1     9       7   7   7   7   7   7   7   7   7
                       6   6   6   6   6   6   6   6   6
                       1   1   1   1   1   1   1   1   1
                       0   0   0   0   0   0   0   0   0
 53      1     6       0   0   0   0   0   0
                       4   4   4   4   4   4
                       0   0   0   0   0   0
                       9   9   9   9   9   9
 54      1     7       0   0   0   0   0   0   0
                       8   8   8   8   8   8   8
                       4   4   4   4   4   4   4
                       6   6   6   6   6   6   6
 55      1     7       6   6   6   6   6   6   6
                       5   5   5   5   5   5   5
                       7   7   7   7   7   7   7
                       2   2   2   2   2   2   2
 56      1     1       9
                       1
                      10
                       0
 57      1     8       1   1   1   1   1   1   1   1
                       0   0   0   0   0   0   0   0
                       9   9   9   9   9   9   9   9
                       4   4   4   4   4   4   4   4
 58      1     8       0   0   0   0   0   0   0   0
                      10  10  10  10  10   5  10  10
                       3   3   3   3   3   2   3   3
                       1   1   1   1   1   1   1   1
 59      1     6       0   0   0   0   0   0
                       5   5   5   5   5   5
                       7   7   7   7   7   7
                       3   3   3   3   3   3
 60      1     1       4
                       1
                       0
                       5
 61      1     2       2   2
                       7   7
                       4   4
                       0   0
 62      1     2       5   5
                       2   2
                       0   0
                       0   0
 63      1     9       0   0   0   0   0   0   0   0   0
                       9   9   9   9   9   9   9   9   9
                       4   4   4   4   4   4   4   4   4
                       5   5   5   5   5   5   5   5   5
 64      1     5       1   1   1   1   1
                       0   0   0   0   0
                       5  10  10  10  10
                       0   0   0   0   0
 65      1     1       6
                       3
                       1
                       0
 66      1     7       8   8   8   8   8   8   4
                       4   4   4   4   4   4   2
                       0   0   0   0   0   0   0
                       7   7   7   7   7   7   4
 67      1     3       1   1   1
                       2   2   2
                      10  10  10
                       0   0   0
 68      1     8       0   0   0   0   0   0   0   0
                       8   8   8   8   8   4   8   8
                       4   4   4   4   4   2   4   4
                       0   0   0   0   0   0   0   0
 69      1     1       2
                       0
                       9
                       2
 70      1     4       1   1   1   1
                       8   8   8   8
                       1   1   1   1
                       0   0   0   0
 71      1     5       0   0   0   0   0
                       7   4   4   7   4
                       7   4   4   7   4
                       5   3   3   5   3
 72      1     7       6   6   6   6   6   6   6
                       1   1   1   1   1   1   1
                      10  10  10  10  10  10  10
                       7   7   7   7   7   7   7
 73      1     9       2   2   2   2   2   2   2   2   2
                       2   2   2   2   2   2   2   2   2
                       1   1   1   1   1   1   1   1   1
                       9   9   9   9   9   9   9   9   9
 74      1     5       0   0   0   0   0
                       0   0   0   0   0
                      10  10  10  10  10
                       2   2   2   2   2
 75      1     2       4   4
                       0   0
                       8   8
                       0   0
 76      1    10       0   0   0   0   0   0   0   0   0   0
                       9   9   9   9   9   9   9   9   9   9
                       1   1   1   1   1   1   1   1   1   1
                       2   2   2   2   2   2   2   2   2   2
 77      1     1       2
                       3
                       8
                       0
 78      1     4       7   7   7   4
                       7   7   7   4
                       0   0   0   0
                       6   6   6   3
 79      1     7      10  10  10  10  10  10  10
                       5   5   5   5   5   5   5
                       6   6   6   6   6   6   6
                       0   0   0   0   0   0   0
 80      1    10       3   3   3   3   3   3   3   3   3   3
                      10  10  10  10  10  10  10  10  10  10
                       0   0   0   0   0   0   0   0   0   0
                       1   1   1   1   1   1   1   1   1   1
 81      1     8       0   0   0   0   0   0   0   0
                       5   9   9   9   9   9   9   9
                       5  10  10  10  10  10  10  10
                       1   2   2   2   2   2   2   2
 82      1     7       6   6   6   6   6   6   6
                       0   0   0   0   0   0   0
                       8   8   8   8   8   8   8
                       5   5   5   5   5   5   5
 83      1     8       2   2   2   1   2   2   2   2
                       0   0   0   0   0   0   0   0
                       3   3   3   2   3   3   3   3
                       1   1   1   1   1   1   1   1
 84      1     7       0   0   0   0   0   0   0
                      10  10  10  10  10  10  10
                       5   5   5   5   5   5   5
                       0   0   0   0   0   0   0
 85      1     7       4   2   4   4   2   2   4
                       4   2   4   4   2   2   4
                       5   3   5   5   3   3   5
                       6   3   6   6   3   3   6
 86      1     3       9   5   9
                       2   1   2
                       9   5   9
                      10   5  10
 87      1     7       0   0   0   0   0   0   0
                       8   8   8   8   8   8   8
                       2   2   2   2   2   2   2
                       6   6   6   6   6   6   6
 88      1     8       0   0   0   0   0   0   0   0
                       5   5   5   5   5   5   5   5
                       3   3   3   3   3   3   3   3
                       8   8   8   8   8   8   8   8
 89      1     8       0   0   0   0   0   0   0   0
                       6   6   6   6   6   6   6   6
                       4   4   4   4   4   4   4   4
                       6   6   6   6   6   6   6   6
 90      1     2       2   1
                       0   0
                       1   1
                       0   0
 91      1     8       8   8   8   8   8   8   4   8
                       9   9   9   9   9   9   5   9
                       1   1   1   1   1   1   1   1
                       0   0   0   0   0   0   0   0
 92      1     5      10  10  10  10  10
                       9   9   9   9   9
                       4   4   4   4   4
                       0   0   0   0   0
 93      1     5       1   1   1   1   1
                       0   0   0   0   0
                       4   4   4   2   4
                       0   0   0   0   0
 94      1     8       0   0   0   0   0   0   0   0
                       2   3   3   3   3   3   3   3
                       2   3   3   3   3   3   3   3
                       3   5   5   5   5   5   5   5
 95      1     7       7   7   7   7   4   4   4
                       0   0   0   0   0   0   0
                       1   1   1   1   1   1   1
                       0   0   0   0   0   0   0
 96      1     8       5   5   5   5   5   3   5   5
                       1   1   1   1   1   1   1   1
                       3   3   3   3   3   2   3   3
                       2   2   2   2   2   1   2   2
 97      1     5       0   0   0   0   0
                       4   2   4   2   4
                       7   4   7   4   7
                       0   0   0   0   0
 98      1    10       0   0   0   0   0   0   0   0   0   0
                       0   0   0   0   0   0   0   0   0   0
                       0   0   0   0   0   0   0   0   0   0
                       3   6   3   6   3   3   6   6   6   6
 99      1     8       5   5   3   5   5   5   5   5
                       1   1   1   1   1   1   1   1
                       5   5   3   5   5   5   5   5
                       4   4   2   4   4   4   4   4
100      1     6       2   3   2   3   3   3
                       4   8   4   8   8   8
                       4   7   4   7   7   7
                       2   4   2   4   4   4
101      1     4       8   8   8   8
                       5   5   5   5
                       4   4   4   4
                       6   6   6   6
102      1     6       7   7   7   7   7   7
                       6   6   6   6   6   6
                       0   0   0   0   0   0
                       1   1   1   1   1   1
103      1     6       5   9   9   5   9   9
                       1   2   2   1   2   2
                       3   5   5   3   5   5
                       5  10  10   5  10  10
104      1     7       9   5   5   9   9   9   9
                       1   1   1   1   1   1   1
                       1   1   1   1   1   1   1
                       0   0   0   0   0   0   0
105      1    10       7   4   7   7   7   7   7   7   7   7
                       0   0   0   0   0   0   0   0   0   0
                       8   4   8   8   8   8   8   8   8   8
                       0   0   0   0   0   0   0   0   0   0
106      1     4       1   1   1   1
                       0   0   0   0
                       5   5   5   3
                       8   8   8   4
107      1     6       4   7   7   7   7   7
                       1   2   2   2   2   2
                       1   2   2   2   2   2
                       1   2   2   2   2   2
108      1     1       9
                       6
                       6
                       0
109      1     9       4   4   4   4   4   4   4   4   4
                       8   8   8   8   8   8   8   8   8
                       0   0   0   0   0   0   0   0   0
                       7   7   7   7   7   7   7   7   7
110      1     6      10  10  10   5  10  10
                       4   4   4   2   4   4
                       8   8   8   4   8   8
                       2   2   2   1   2   2
111      1     2       8   8
                       9   9
                       0   0
                       2   2
112      1     4       0   0   0   0
                       7   4   7   7
                       8   4   8   8
                      10   5  10  10
113      1     3      10  10  10
                       9   9   9
                       4   4   4
                       9   9   9
114      1     4       0   0   0   0
                       4   4   4   2
                      10  10  10   5
                       0   0   0   0
115      1     5       6   6   6   3   3
                       4   4   4   2   2
                       6   6   6   3   3
                       4   4   4   2   2
116      1     3       2   2   2
                       0   0   0
                       0   0   0
                       4   4   4
117      1     6       5   3   5   5   5   5
                       7   4   7   7   7   7
                      10   5  10  10  10  10
                       8   4   8   8   8   8
118      1     9       3   3   3   3   3   2   3   3   3
                       0   0   0   0   0   0   0   0   0
                       0   0   0   0   0   0   0   0   0
                       8   8   8   8   8   4   8   8   8
119      1     1       0
                      10
                       3
                       8
120      1     7       0   0   0   0   0   0   0
                       7   7   7   7   7   7   7
                       3   3   3   3   3   3   3
                       7   7   7   7   7   7   7
121      1     9       4   2   4   4   2   4   4   4   4
                       7   4   7   7   4   7   7   7   7
                       2   1   2   2   1   2   2   2   2
                       5   3   5   5   3   5   5   5   5
122      1     0    
************************************************************************
RESOURCEAVAILABILITIES:
  R 1  R 2  R 3  R 4

  30  30  30  30  30  30  30  30  15  30  30  30  30  30  30  15  30  30  30  15  30  15  30  30  30  30  30  30  30  30  30  30  30  30  30  30  30  30  30  30  30  30  30  15  15  30  30  30  30  30  15  30  30  30  30  30  30  30  30  30  15  30  30  15  30  15  30  30  30  30  30  30  15  30  30  30  30  30  30  30  30  30  30  15  30  15  30  30  30  30  30  30  30  30  30  30  30  30  30  30  30  30  30  30  30  30  30  30  30  30  30  30  30  30  30  30  15  30  15  30  30  15  30  30  30  30  30  30  30  30  30  30  30  30  30  30  30  30  30  30  30  30  15  30  30  30  15  30  30  30  30  15  30  30  30  30  30  15  30  15  15  15  30  30  30  30  30  30  30  30  30  30  30  30  30  30  30  15  30  30  30  30  30  30  30  15  15  30  30  30  30  30  30  30  30  30  30  30  30  30  30  30  30  30  30  30  30  30  30  30  15  30  30  30  30  30  30  30  15  30  30  30  30  15  30  30  15  30  30  30  15  30  30  30  30  30  30  30  30  30  30  15  30  30  30  30  15  30  30  30  30  30  30  30  30  30  30  30  30  15  30  30  30  30  30  30  30  30  30  15  30  30  30  30  30  30  30  30  30  30  30  30  30  30  30  30  30  30  15  30  30  30  30  30  30  30  30  30  30  30  30  30  30  30  30  30  30  30  30  30  30  30  30  30  30  15  30  30  30  30  30  15  30  15  30  30  30  30  15  30  30  15  30  30  30  30  15  30  30  30  30  30  30  30  30  30  30  30  30  30  30  30  30  30  30  30  30  30  30  30  30  30  30  30  30  15  30  30  30  15  30  15  30  15  30  30  30  30  30  30  30  30  30  30  30  30  30  30  30  30  15  30  30  30  30  30  30  30  30  15  30  30  30  30  30  30  15  30  30  30  30  30  30  30  30  30  30  30  30  15  30  30  30  30  30  30  30  30  30  30  30  30  30  30  30  30  30  30  30  30  30  30  30  30  30  30  30  30  30  30  30  30  30  30  30  30  30  30  30  30  30  15  30  30  30  30  30  30  30  15  30  30  30  30  30  30  30  30  30  30  30  30  30  30  30  30  30  30  30  30  30  30  30  30  30  30  30  30  30  30  30  30  30  30  30  30  30  15  30  30  30  30  30  30  30  30  30  30  30  30  30  30  30  30  30  30  30  30  30  15  30  30  30  30  30  30  30  30  30  30  15  30  30  30  30  30  30  30  30  30  30  30  30  30  30  30  30  30  30  15  15  30  30  30  15  15  30  30  30  30  30  30  30  30  30  30  30  30  30  30  30  30  30  30  30  15  30  30  30  30  30  30  30  30  30  30  30  30  30  30  30  30  30  30  30  30  30  30  30  30  30  30  30  30  30  30  30  30  15  30  30  30  30  30  15  30  15  30  15  30  30  30  30  15  30  30  30  30  15  30  30  15  30  30  15  30  30  30  30  30  30  30  15  30  30  30  30  30  30  30  30  30  30  30  30  30  30  30  30  30  30  30  30  30  30  30  30  30  30  30  30  30  30  30  30  30  15  30  30  15  30  30  30

  44  44  44  44  44  44  44  44  22  44  44  44  44  44  44  22  44  44  44  22  44  22  44  44  44  44  44  44  44  44  44  44  44  44  44  44  44  44  44  44  44  44  44  22  22  44  44  44  44  44  22  44  44  44  44  44  44  44  44  44  22  44  44  22  44  22  44  44  44  44  44  44  22  44  44  44  44  44  44  44  44  44  44  22  44  22  44  44  44  44  44  44  44  44  44  44  44  44  44  44  44  44  44  44  44  44  44  44  44  44  44  44  44  44  44  44  22  44  22  44  44  22  44  44  44  44  44  44  44  44  44  44  44  44  44  44  44  44  44  44  44  44  22  44  44  44  22  44  44  44  44  22  44  44  44  44  44  22  44  22  22  22  44  44  44  44  44  44  44  44  44  44  44  44  44  44  44  22  44  44  44  44  44  44  44  22  22  44  44  44  44  44  44  44  44  44  44  44  44  44  44  44  44  44  44  44  44  44  44  44  22  44  44  44  44  44  44  44  22  44  44  44  44  22  44  44  22  44  44  44  22  44  44  44  44  44  44  44  44  44  44  22  44  44  44  44  22  44  44  44  44  44  44  44  44  44  44  44  44  22  44  44  44  44  44  44  44  44  44  22  44  44  44  44  44  44  44  44  44  44  44  44  44  44  44  44  44  44  22  44  44  44  44  44  44  44  44  44  44  44  44  44  44  44  44  44  44  44  44  44  44  44  44  44  44  22  44  44  44  44  44  22  44  22  44  44  44  44  22  44  44  22  44  44  44  44  22  44  44  44  44  44  44  44  44  44  44  44  44  44  44  44  44  44  44  44  44  44  44  44  44  44  44  44  44  22  44  44  44  22  44  22  44  22  44  44  44  44  44  44  44  44  44  44  44  44  44  44  44  44  22  44  44  44  44  44  44  44  44  22  44  44  44  44  44  44  22  44  44  44  44  44  44  44  44  44  44  44  44  22  44  44  44  44  44  44  44  44  44  44  44  44  44  44  44  44  44  44  44  44  44  44  44  44  44  44  44  44  44  44  44  44  44  44  44  44  44  44  44  44  44  22  44  44  44  44  44  44  44  22  44  44  44  44  44  44  44  44  44  44  44  44  44  44  44  44  44  44  44  44  44  44  44  44  44  44  44  44  44  44  44  44  44  44  44  44  44  22  44  44  44  44  44  44  44  44  44  44  44  44  44  44  44  44  44  44  44  44  44  22  44  44  44  44  44  44  44  44  44  44  22  44  44  44  44  44  44  44  44  44  44  44  44  44  44  44  44  44  44  22  22  44  44  44  22  22  44  44  44  44  44  44  44  44  44  44  44  44  44  44  44  44  44  44  44  22  44  44  44  44  44  44  44  44  44  44  44  44  44  44  44  44  44  44  44  44  44  44  44  44  44  44  44  44  44  44  44  44  22  44  44  44  44  44  22  44  22  44  22  44  44  44  44  22  44  44  44  44  22  44  44  22  44  44  22  44  44  44  44  44  44  44  22  44  44  44  44  44  44  44  44  44  44  44  44  44  44  44  44  44  44  44  44  44  44  44  44  44  44  44  44  44  44  44  44  44  22  44  44  22  44  44  44

  34  34  34  34  34  34  34  34  17  34  34  34  34  34  34  17  34  34  34  17  34  17  34  34  34  34  34  34  34  34  34  34  34  34  34  34  34  34  34  34  34  34  34  17  17  34  34  34  34  34  17  34  34  34  34  34  34  34  34  34  17  34  34  17  34  17  34  34  34  34  34  34  17  34  34  34  34  34  34  34  34  34  34  17  34  17  34  34  34  34  34  34  34  34  34  34  34  34  34  34  34  34  34  34  34  34  34  34  34  34  34  34  34  34  34  34  17  34  17  34  34  17  34  34  34  34  34  34  34  34  34  34  34  34  34  34  34  34  34  34  34  34  17  34  34  34  17  34  34  34  34  17  34  34  34  34  34  17  34  17  17  17  34  34  34  34  34  34  34  34  34  34  34  34  34  34  34  17  34  34  34  34  34  34  34  17  17  34  34  34  34  34  34  34  34  34  34  34  34  34  34  34  34  34  34  34  34  34  34  34  17  34  34  34  34  34  34  34  17  34  34  34  34  17  34  34  17  34  34  34  17  34  34  34  34  34  34  34  34  34  34  17  34  34  34  34  17  34  34  34  34  34  34  34  34  34  34  34  34  17  34  34  34  34  34  34  34  34  34  17  34  34  34  34  34  34  34  34  34  34  34  34  34  34  34  34  34  34  17  34  34  34  34  34  34  34  34  34  34  34  34  34  34  34  34  34  34  34  34  34  34  34  34  34  34  17  34  34  34  34  34  17  34  17  34  34  34  34  17  34  34  17  34  34  34  34  17  34  34  34  34  34  34  34  34  34  34  34  34  34  34  34  34  34  34  34  34  34  34  34  34  34  34  34  34  17  34  34  34  17  34  17  34  17  34  34  34  34  34  34  34  34  34  34  34  34  34  34  34  34  17  34  34  34  34  34  34  34  34  17  34  34  34  34  34  34  17  34  34  34  34  34  34  34  34  34  34  34  34  17  34  34  34  34  34  34  34  34  34  34  34  34  34  34  34  34  34  34  34  34  34  34  34  34  34  34  34  34  34  34  34  34  34  34  34  34  34  34  34  34  34  17  34  34  34  34  34  34  34  17  34  34  34  34  34  34  34  34  34  34  34  34  34  34  34  34  34  34  34  34  34  34  34  34  34  34  34  34  34  34  34  34  34  34  34  34  34  17  34  34  34  34  34  34  34  34  34  34  34  34  34  34  34  34  34  34  34  34  34  17  34  34  34  34  34  34  34  34  34  34  17  34  34  34  34  34  34  34  34  34  34  34  34  34  34  34  34  34  34  17  17  34  34  34  17  17  34  34  34  34  34  34  34  34  34  34  34  34  34  34  34  34  34  34  34  17  34  34  34  34  34  34  34  34  34  34  34  34  34  34  34  34  34  34  34  34  34  34  34  34  34  34  34  34  34  34  34  34  17  34  34  34  34  34  17  34  17  34  17  34  34  34  34  17  34  34  34  34  17  34  34  17  34  34  17  34  34  34  34  34  34  34  17  34  34  34  34  34  34  34  34  34  34  34  34  34  34  34  34  34  34  34  34  34  34  34  34  34  34  34  34  34  34  34  34  34  17  34  34  17  34  34  34

  36  36  36  36  36  36  36  36  18  36  36  36  36  36  36  18  36  36  36  18  36  18  36  36  36  36  36  36  36  36  36  36  36  36  36  36  36  36  36  36  36  36  36  18  18  36  36  36  36  36  18  36  36  36  36  36  36  36  36  36  18  36  36  18  36  18  36  36  36  36  36  36  18  36  36  36  36  36  36  36  36  36  36  18  36  18  36  36  36  36  36  36  36  36  36  36  36  36  36  36  36  36  36  36  36  36  36  36  36  36  36  36  36  36  36  36  18  36  18  36  36  18  36  36  36  36  36  36  36  36  36  36  36  36  36  36  36  36  36  36  36  36  18  36  36  36  18  36  36  36  36  18  36  36  36  36  36  18  36  18  18  18  36  36  36  36  36  36  36  36  36  36  36  36  36  36  36  18  36  36  36  36  36  36  36  18  18  36  36  36  36  36  36  36  36  36  36  36  36  36  36  36  36  36  36  36  36  36  36  36  18  36  36  36  36  36  36  36  18  36  36  36  36  18  36  36  18  36  36  36  18  36  36  36  36  36  36  36  36  36  36  18  36  36  36  36  18  36  36  36  36  36  36  36  36  36  36  36  36  18  36  36  36  36  36  36  36  36  36  18  36  36  36  36  36  36  36  36  36  36  36  36  36  36  36  36  36  36  18  36  36  36  36  36  36  36  36  36  36  36  36  36  36  36  36  36  36  36  36  36  36  36  36  36  36  18  36  36  36  36  36  18  36  18  36  36  36  36  18  36  36  18  36  36  36  36  18  36  36  36  36  36  36  36  36  36  36  36  36  36  36  36  36  36  36  36  36  36  36  36  36  36  36  36  36  18  36  36  36  18  36  18  36  18  36  36  36  36  36  36  36  36  36  36  36  36  36  36  36  36  18  36  36  36  36  36  36  36  36  18  36  36  36  36  36  36  18  36  36  36  36  36  36  36  36  36  36  36  36  18  36  36  36  36  36  36  36  36  36  36  36  36  36  36  36  36  36  36  36  36  36  36  36  36  36  36  36  36  36  36  36  36  36  36  36  36  36  36  36  36  36  18  36  36  36  36  36  36  36  18  36  36  36  36  36  36  36  36  36  36  36  36  36  36  36  36  36  36  36  36  36  36  36  36  36  36  36  36  36  36  36  36  36  36  36  36  36  18  36  36  36  36  36  36  36  36  36  36  36  36  36  36  36  36  36  36  36  36  36  18  36  36  36  36  36  36  36  36  36  36  18  36  36  36  36  36  36  36  36  36  36  36  36  36  36  36  36  36  36  18  18  36  36  36  18  18  36  36  36  36  36  36  36  36  36  36  36  36  36  36  36  36  36  36  36  18  36  36  36  36  36  36  36  36  36  36  36  36  36  36  36  36  36  36  36  36  36  36  36  36  36  36  36  36  36  36  36  36  18  36  36  36  36  36  18  36  18  36  18  36  36  36  36  18  36  36  36  36  18  36  36  18  36  36  18  36  36  36  36  36  36  36  18  36  36  36  36  36  36  36  36  36  36  36  36  36  36  36  36  36  36  36  36  36  36  36  36  36  36  36  36  36  36  36  36  36  18  36  36  18  36  36  36

************************************************************************
